(declare-const delta_sum Int)
(declare-const delta_i Int)
(assert (exists ((|sum'?1| Int) (|i'?2| Int) (sum?3 Int) (i?4 Int) (n?5 Int))
         (and (<= (- sum?3) 0) (<= (- i?4) 0) (<= (- n?5) 0)
                (< (+ (- n?5) i?4) 0) (= (+ |sum'?1| (- i?4) (- sum?3)) 0)
                (= (+ |i'?2| (- i?4) -1) 0) (= delta_i (+ |i'?2| (- i?4)))
                (= delta_sum (+ |sum'?1| (- sum?3))))))
(check-sat)
